# Objective value = 3.0101397242036671e+02
x[0] 0
x[1] 0
x[2] 1
x[3] 1
x[4] 1
x[5] 0
x[6] 1
x[7] 0
x[8] 1
x[9] 0
x[10] 0
x[11] 0
x[12] 1
x[13] 1
x[14] 0
x[15] 1
x[16] 0
x[17] 0
x[18] 1
x[19] 0
x[20] 0
x[21] 0
x[22] 0
x[23] 1
x[24] 1
x[25] 1
x[26] 1
x[27] 0
x[28] 0
x[29] 0
x[30] 0
x[31] 0
x[32] 0
x[33] 1
x[34] 0
x[35] 0
x[36] 0
x[37] 0
x[38] 0
x[39] 0
x[40] 0
x[41] 0
x[42] 1
x[43] 1
x[44] 1
x[45] 0
x[46] 0
x[47] 0
x[48] 1
x[49] 1
x[50] 1
x[51] 1
x[52] 1
x[53] 1
x[54] 1
x[55] 0
x[56] 1
x[57] 0
x[58] 1
x[59] 1
x[60] 1
x[61] 0
x[62] 0
x[63] 1
x[64] 1
x[65] 0
x[66] 1
x[67] 0
x[68] 0
x[69] 0
x[70] 1
x[71] 1
x[72] 0
x[73] 1
x[74] 1
x[75] 0
x[76] 1
x[77] 1
x[78] 0
x[79] 1
x[80] 1
x[81] 0
x[82] 0
x[83] 1
x[84] 1
x[85] 0
x[86] 0
x[87] 0
x[88] 0
x[89] 1
x[90] 0
x[91] 0
x[92] 0
x[93] 1
x[94] 1
x[95] 1
x[96] 0
x[97] 1
x[98] 0
x[99] 1
x[100] 0
x[101] 1
x[102] 1
x[103] 1
x[104] 1
x[105] 1
x[106] 1
x[107] 0
x[108] 0
x[109] 0
x[110] 1
x[111] 0
x[112] 0
x[113] 0
x[114] 0
x[115] 1
x[116] 0
x[117] 0
x[118] 1
x[119] 0
x[120] 1
x[121] 0
x[122] 0
x[123] 0
x[124] 1
x[125] 0
x[126] 1
x[127] 1
x[128] 0
x[129] 0
x[130] 0
x[131] 0
x[132] 1
x[133] 0
x[134] 0
x[135] 1
x[136] 0
x[137] 1
x[138] 1
x[139] 1
x[140] 1
x[141] 0
x[142] 0
x[143] 0
x[144] 1
x[145] 1
x[146] 1
x[147] 0
x[148] 1
x[149] 0
x[150] 0
x[151] 1
x[152] 0
x[153] 1
x[154] 0
x[155] 1
x[156] 1
x[157] 0
x[158] 0
x[159] 1
x[160] 1
x[161] 1
x[162] 0
x[163] 1
x[164] 0
x[165] 0
x[166] 1
x[167] 1
x[168] 0
x[169] 1
x[170] 1
x[171] 0
x[172] 1
x[173] 0
x[174] 1
x[175] 0
x[176] 1
x[177] 0
x[178] 0
x[179] 1
x[180] 1
x[181] 0
x[182] 1
x[183] 1
x[184] 0
x[185] 0
x[186] 1
x[187] 1
x[188] 0
x[189] 0
x[190] 0
x[191] 1
x[192] 0
x[193] 1
x[194] 1
x[195] 0
x[196] 1
x[197] 1
x[198] 1
x[199] 0
x[200] 0
x[201] 1
x[202] 0
x[203] 1
x[204] 1
x[205] 0
x[206] 0
x[207] 1
x[208] 0
x[209] 0
x[210] 0
x[211] 1
x[212] 1
x[213] 1
x[214] 0
x[215] 1
x[216] 0
x[217] 0
x[218] 0
x[219] 0
x[220] 0
x[221] 1
x[222] 0
x[223] 1
x[224] 1
x[225] 1
x[226] 0
x[227] 0
x[228] 0
x[229] 0
x[230] 1
x[231] 0
x[232] 0
x[233] 0
x[234] 1
x[235] 1
x[236] 1
x[237] 0
x[238] 0
x[239] 1
x[240] 1
x[241] 1
x[242] 1
x[243] 1
x[244] 0
x[245] 1
x[246] 1
x[247] 0
x[248] 1
x[249] 0
x[250] 1
x[251] 1
x[252] 0
x[253] 0
x[254] 1
x[255] 0
x[256] 1
x[257] 1
x[258] 1
x[259] 0
x[260] 1
x[261] 0
x[262] 0
x[263] 0
x[264] 1
x[265] 0
x[266] 1
x[267] 1
x[268] 0
x[269] 1
x[270] 0
x[271] 0
x[272] 0
x[273] 0
x[274] 0
x[275] 1
x[276] 0
x[277] 0
x[278] 1
x[279] 0
x[280] 0
x[281] 0
x[282] 0
x[283] 0
x[284] 1
x[285] 0
x[286] 1
x[287] 0
x[288] 1
x[289] 1
x[290] 1
x[291] 1
x[292] 1
x[293] 1
x[294] 0
x[295] 0
x[296] 0
x[297] 0
x[298] 0
x[299] 0
x[300] 0
x[301] 0
x[302] 1
x[303] 1
x[304] 1
x[305] 1
x[306] 0
x[307] 0
x[308] 0
x[309] 1
x[310] 0
x[311] 1
x[312] 0
x[313] 0
x[314] 1
x[315] 0
x[316] 1
x[317] 0
x[318] 0
x[319] 0
x[320] 1
x[321] 0
x[322] 1
x[323] 0
x[324] 0
x[325] 0
x[326] 0
x[327] 1
x[328] 1
x[329] 0
x[330] 0
x[331] 0
x[332] 0
x[333] 1
x[334] 0
x[335] 0
x[336] 0
x[337] 1
x[338] 0
x[339] 1
x[340] 0
x[341] 1
x[342] 1
x[343] 1
x[344] 1
x[345] 1
x[346] 0
x[347] 1
x[348] 0
x[349] 0
x[350] 1
x[351] 0
x[352] 0
x[353] 0
x[354] 1
x[355] 0
x[356] 1
x[357] 0
x[358] 0
x[359] 0
x[360] 0
x[361] 1
x[362] 1
x[363] 0
x[364] 0
x[365] 1
x[366] 0
x[367] 1
x[368] 1
x[369] 1
x[370] 0
x[371] 1
x[372] 0
x[373] 0
x[374] 1
x[375] 1
x[376] 0
x[377] 1
x[378] 1
x[379] 0
x[380] 1
x[381] 1
x[382] 1
x[383] 1
x[384] 1
x[385] 0
x[386] 0
x[387] 1
x[388] 0
x[389] 1
x[390] 1
x[391] 1
x[392] 0
x[393] 1
x[394] 0
x[395] 1
x[396] 0
x[397] 0
x[398] 1
x[399] 1
x[400] 0
x[401] 0
x[402] 1
x[403] 1
x[404] 1
x[405] 0
x[406] 1
x[407] 1
x[408] 0
x[409] 0
x[410] 1
x[411] 0
x[412] 0
x[413] 1
x[414] 0
x[415] 0
x[416] 1
x[417] 0
x[418] 0
x[419] 0
x[420] 1
x[421] 1
x[422] 1
x[423] 0
x[424] 1
x[425] 0
x[426] 1
x[427] 1
x[428] 0
x[429] 0
x[430] 0
x[431] 1
x[432] 1
x[433] 1
x[434] 0
x[435] 1
x[436] 0
x[437] 0
x[438] 1
x[439] 0
x[440] 1
x[441] 0
x[442] 1
x[443] 1
x[444] 1
x[445] 0
x[446] 1
x[447] 1
x[448] 1
x[449] 0
x[450] 0
x[451] 1
x[452] 0
x[453] 0
x[454] 1
x[455] 0
x[456] 1
x[457] 1
x[458] 0
x[459] 0
x[460] 1
x[461] 0
x[462] 1
x[463] 0
x[464] 1
x[465] 0
x[466] 1
x[467] 0
x[468] 1
x[469] 0
x[470] 1
x[471] 1
x[472] 1
x[473] 0
x[474] 0
x[475] 1
x[476] 1
x[477] 1
x[478] 1
x[479] 0
x[480] 1
x[481] 0
x[482] 1
x[483] 0
x[484] 1
x[485] 0
x[486] 1
x[487] 1
x[488] 0
x[489] 0
x[490] 1
x[491] 1
x[492] 0
x[493] 0
x[494] 0
x[495] 0
x[496] 0
x[497] 1
x[498] 1
x[499] 1
x[500] 1
x[501] 1
x[502] 1
x[503] 1
x[504] 0
x[505] 1
x[506] 0
x[507] 0
x[508] 1
x[509] 1
x[510] 1
x[511] 1
x[512] 1
x[513] 0
x[514] 0
x[515] 0
x[516] 0
x[517] 0
x[518] 0
x[519] 1
x[520] 1
x[521] 1
x[522] 0
x[523] 0
x[524] 0
x[525] 0
x[526] 0
x[527] 1
x[528] 1
x[529] 1
x[530] 1
x[531] 1
x[532] 1
x[533] 0
x[534] 1
x[535] 0
x[536] 1
x[537] 0
x[538] 1
x[539] 0
x[540] 0
x[541] 1
x[542] 1
x[543] 1
x[544] 1
x[545] 0
x[546] 1
x[547] 1
x[548] 0
x[549] 0
x[550] 1
x[551] 1
x[552] 1
x[553] 1
x[554] 1
x[555] 1
x[556] 0
x[557] 1
x[558] 1
x[559] 0
x[560] 1
x[561] 1
x[562] 0
x[563] 0
x[564] 1
x[565] 1
x[566] 1
x[567] 0
x[568] 0
x[569] 1
x[570] 0
x[571] 0
x[572] 1
x[573] 0
x[574] 1
x[575] 1
x[576] 0
x[577] 1
x[578] 0
x[579] 1
x[580] 1
x[581] 0
x[582] 1
x[583] 1
x[584] 1
x[585] 0
x[586] 0
x[587] 1
x[588] 0
x[589] 0
x[590] 1
x[591] 1
x[592] 0
x[593] 1
x[594] 1
x[595] 0
x[596] 0
x[597] 0
x[598] 0
x[599] 0
x[600] 0
x[601] 0
x[602] 1
x[603] 1
x[604] 1
x[605] 0
x[606] 1
x[607] 1
x[608] 1
x[609] 0
x[610] 1
x[611] 0
x[612] 0
x[613] 0
x[614] 1
x[615] 0
x[616] 0
x[617] 0
x[618] 1
x[619] 0
x[620] 1
x[621] 0
x[622] 1
x[623] 1
x[624] 0
x[625] 1
x[626] 1
x[627] 1
x[628] 0
x[629] 1
x[630] 0
x[631] 0
x[632] 0
x[633] 0
x[634] 1
x[635] 0
x[636] 0
x[637] 0
x[638] 0
x[639] 1
x[640] 0
x[641] 0
x[642] 1
x[643] 1
x[644] 0
x[645] 0
x[646] 1
x[647] 1
x[648] 0
x[649] 0
x[650] 0
x[651] 0
x[652] 0
x[653] 1
x[654] 0
x[655] 1
x[656] 1
x[657] 0
x[658] 0
x[659] 1
x[660] 0
x[661] 0
x[662] 0
x[663] 1
x[664] 0
x[665] 1
x[666] 0
x[667] 0
x[668] 1
x[669] 1
x[670] 1
x[671] 0
x[672] 1
x[673] 1
x[674] 0
x[675] 1
x[676] 1
x[677] 1
x[678] 0
x[679] 0
x[680] 0
x[681] 1
x[682] 1
x[683] 1
x[684] 0
x[685] 1
x[686] 0
x[687] 0
x[688] 0
x[689] 1
x[690] 1
x[691] 0
x[692] 1
x[693] 1
x[694] 1
x[695] 1
x[696] 1
x[697] 1
x[698] 1
x[699] 1
x[700] 0
x[701] 0
x[702] 0
x[703] 0
x[704] 1
x[705] 1
x[706] 0
x[707] 1
x[708] 1
x[709] 0
x[710] 1
x[711] 1
x[712] 1
x[713] 0
x[714] 0
x[715] 0
x[716] 1
x[717] 0
x[718] 0
x[719] 0
x[720] 1
x[721] 1
x[722] 0
x[723] 1
x[724] 0
x[725] 0
x[726] 1
x[727] 1
x[728] 0
x[729] 0
x[730] 1
x[731] 1
x[732] 0
x[733] 0
x[734] 1
x[735] 0
x[736] 0
x[737] 1
x[738] 1
x[739] 1
x[740] 0
x[741] 0
x[742] 0
x[743] 0
x[744] 0
x[745] 0
x[746] 0
x[747] 1
x[748] 0
x[749] 1
x[750] 1
x[751] 0
x[752] 0
x[753] 1
x[754] 0
x[755] 0
x[756] 1
x[757] 0
x[758] 1
x[759] 0
x[760] 1
x[761] 1
x[762] 0
x[763] 0
x[764] 0
x[765] 0
x[766] 1
x[767] 0
x[768] 0
x[769] 1
x[770] 0
x[771] 0
x[772] 0
x[773] 0
x[774] 1
x[775] 0
x[776] 1
x[777] 1
x[778] 0
x[779] 0
x[780] 0
x[781] 0
x[782] 0
x[783] 1
x[784] 1
x[785] 1
x[786] 1
x[787] 1
x[788] 0
x[789] 0
x[790] 1
x[791] 0
x[792] 0
x[793] 0
x[794] 0
x[795] 1
x[796] 0
x[797] 0
x[798] 0
x[799] 0
x[800] 0
x[801] 1
x[802] 0
x[803] 1
x[804] 0
x[805] 0
x[806] 1
x[807] 0
x[808] 1
x[809] 1
x[810] 0
x[811] 1
x[812] 1
x[813] 1
x[814] 1
x[815] 0
x[816] 1
x[817] 1
x[818] 1
x[819] 1
x[820] 0
x[821] 1
x[822] 1
x[823] 0
x[824] 0
x[825] 1
x[826] 1
x[827] 1
x[828] 0
x[829] 0
x[830] 1
x[831] 0
x[832] 1
x[833] 0
x[834] 0
x[835] 1
x[836] 1
x[837] 0
x[838] 0
x[839] 1
x[840] 1
x[841] 1
x[842] 1
x[843] 1
x[844] 1
x[845] 0
x[846] 0
x[847] 1
x[848] 1
x[849] 1
x[850] 1
x[851] 0
x[852] 1
x[853] 0
x[854] 0
x[855] 0
x[856] 1
x[857] 0
x[858] 1
x[859] 0
x[860] 0
x[861] 0
x[862] 1
x[863] 1
x[864] 0
x[865] 0
x[866] 0
x[867] 0
x[868] 0
x[869] 1
x[870] 1
x[871] 0
x[872] 0
x[873] 0
x[874] 0
x[875] 1
x[876] 1
x[877] 1
x[878] 1
x[879] 1
x[880] 1
x[881] 0
x[882] 0
x[883] 0
x[884] 1
x[885] 0
x[886] 0
x[887] 0
x[888] 1
x[889] 0
x[890] 0
x[891] 1
x[892] 1
x[893] 1
x[894] 1
x[895] 0
x[896] 1
x[897] 0
x[898] 1
x[899] 1
x[900] 0
x[901] 0
x[902] 0
x[903] 0
x[904] 1
x[905] 0
x[906] 1
x[907] 1
x[908] 1
x[909] 1
x[910] 0
x[911] 1
x[912] 0
x[913] 1
x[914] 0
x[915] 0
x[916] 0
x[917] 0
x[918] 0
x[919] 0
x[920] 0
x[921] 1
x[922] 1
x[923] 1
x[924] 1
x[925] 0
x[926] 0
x[927] 1
x[928] 0
x[929] 0
x[930] 0
x[931] 1
x[932] 0
x[933] 1
x[934] 0
x[935] 0
x[936] 0
x[937] 1
x[938] 0
x[939] 1
x[940] 1
x[941] 0
x[942] 1
x[943] 0
x[944] 0
x[945] 0
x[946] 0
x[947] 0
x[948] 0
x[949] 0
x[950] 1
x[951] 0
x[952] 0
x[953] 1
x[954] 1
x[955] 1
x[956] 0
x[957] 1
x[958] 1
x[959] 1
x[960] 0
x[961] 0
x[962] 0
x[963] 0
x[964] 0
x[965] 1
x[966] 1
x[967] 1
x[968] 0
x[969] 0
x[970] 1
x[971] 1
x[972] 0
x[973] 1
x[974] 1
x[975] 0
x[976] 1
x[977] 1
x[978] 0
x[979] 0
x[980] 1
x[981] 0
x[982] 0
x[983] 1
x[984] 1
x[985] 0
x[986] 1
x[987] 1
x[988] 1
x[989] 1
x[990] 1
x[991] 0
x[992] 1
x[993] 0
x[994] 1
x[995] 0
x[996] 1
x[997] 0
x[998] 0
x[999] 0
